(set-info :smt-lib-version 2.6)
(set-logic QF_NIA)
(set-info :source |
Generated by: Cristina Borralleras, Daniel Larraz, Albert Oliveras, Enric Rodriguez-Carbonell, Albert Rubio
Generated on: 2017-04-27
Generator: VeryMax
Application: Termination proving
Target solver: barcelogic
|)
(set-info :license "https://creativecommons.org/licenses/by/4.0/")
(set-info :category "industrial")
(set-info :status unknown)
(declare-fun Nl4arg11 () Int)
(declare-fun Nl4arg21 () Int)
(declare-fun Nl4arg31 () Int)
(declare-fun Nl4arg12 () Int)
(declare-fun Nl4arg22 () Int)
(declare-fun Nl4arg32 () Int)
(declare-fun Nl4arg13 () Int)
(declare-fun Nl4arg23 () Int)
(declare-fun Nl4arg33 () Int)
(declare-fun lam0n0 () Int)
(declare-fun lam0n1 () Int)
(declare-fun lam0n2 () Int)
(declare-fun lam0n3 () Int)
(declare-fun lam0n4 () Int)
(declare-fun lam0n5 () Int)
(declare-fun lam0n6 () Int)
(declare-fun lam0n7 () Int)
(declare-fun lam0n8 () Int)
(declare-fun lam0n9 () Int)
(declare-fun lam0n10 () Int)
(declare-fun lam0n11 () Int)
(declare-fun lam0n12 () Int)
(declare-fun lam0n13 () Int)
(declare-fun lam0n14 () Int)
(declare-fun lam0n15 () Int)
(declare-fun lam0n16 () Int)
(declare-fun lam0n17 () Int)
(declare-fun lam0n18 () Int)
(declare-fun lam0n19 () Int)
(declare-fun lam0n20 () Int)
(declare-fun lam0n21 () Int)
(declare-fun Nl4CT1 () Int)
(declare-fun lam1n0 () Int)
(declare-fun lam1n1 () Int)
(declare-fun lam1n2 () Int)
(declare-fun lam1n3 () Int)
(declare-fun lam1n4 () Int)
(declare-fun lam1n5 () Int)
(declare-fun lam1n6 () Int)
(declare-fun lam1n7 () Int)
(declare-fun lam1n8 () Int)
(declare-fun lam1n9 () Int)
(declare-fun lam1n10 () Int)
(declare-fun lam1n11 () Int)
(declare-fun lam1n12 () Int)
(declare-fun lam1n13 () Int)
(declare-fun lam1n14 () Int)
(declare-fun lam1n15 () Int)
(declare-fun lam1n16 () Int)
(declare-fun lam1n17 () Int)
(declare-fun lam1n18 () Int)
(declare-fun lam1n19 () Int)
(declare-fun lam1n20 () Int)
(declare-fun lam1n21 () Int)
(declare-fun Nl4CT2 () Int)
(declare-fun lam2n0 () Int)
(declare-fun lam2n1 () Int)
(declare-fun lam2n2 () Int)
(declare-fun lam2n3 () Int)
(declare-fun lam2n4 () Int)
(declare-fun lam2n5 () Int)
(declare-fun lam2n6 () Int)
(declare-fun lam2n7 () Int)
(declare-fun lam2n8 () Int)
(declare-fun lam2n9 () Int)
(declare-fun lam2n10 () Int)
(declare-fun lam2n11 () Int)
(declare-fun lam2n12 () Int)
(declare-fun lam2n13 () Int)
(declare-fun lam2n14 () Int)
(declare-fun lam2n15 () Int)
(declare-fun lam2n16 () Int)
(declare-fun lam2n17 () Int)
(declare-fun lam2n18 () Int)
(declare-fun lam2n19 () Int)
(declare-fun lam2n20 () Int)
(declare-fun lam2n21 () Int)
(declare-fun Nl4CT3 () Int)
(declare-fun lam3n0 () Int)
(declare-fun lam3n1 () Int)
(declare-fun lam3n2 () Int)
(declare-fun lam3n3 () Int)
(declare-fun lam3n4 () Int)
(declare-fun lam3n5 () Int)
(declare-fun lam3n6 () Int)
(declare-fun lam3n7 () Int)
(declare-fun lam3n8 () Int)
(declare-fun lam3n9 () Int)
(declare-fun lam3n10 () Int)
(declare-fun lam3n11 () Int)
(declare-fun lam3n12 () Int)
(declare-fun lam3n13 () Int)
(declare-fun lam3n14 () Int)
(declare-fun lam3n15 () Int)
(declare-fun lam3n16 () Int)
(declare-fun lam3n17 () Int)
(declare-fun lam3n18 () Int)
(declare-fun lam3n19 () Int)
(declare-fun lam3n20 () Int)
(declare-fun lam3n21 () Int)
(declare-fun lam3n22 () Int)
(declare-fun lam4n0 () Int)
(declare-fun lam4n1 () Int)
(declare-fun lam4n2 () Int)
(declare-fun lam4n3 () Int)
(declare-fun lam4n4 () Int)
(declare-fun lam4n5 () Int)
(declare-fun lam4n6 () Int)
(declare-fun lam4n7 () Int)
(declare-fun lam4n8 () Int)
(declare-fun lam4n9 () Int)
(declare-fun lam4n10 () Int)
(declare-fun lam4n11 () Int)
(declare-fun lam4n12 () Int)
(declare-fun lam4n13 () Int)
(declare-fun lam4n14 () Int)
(declare-fun lam4n15 () Int)
(declare-fun lam4n16 () Int)
(declare-fun lam4n17 () Int)
(declare-fun lam4n18 () Int)
(declare-fun lam4n19 () Int)
(declare-fun lam4n20 () Int)
(declare-fun lam4n21 () Int)
(declare-fun lam4n22 () Int)
(declare-fun lam5n0 () Int)
(declare-fun lam5n1 () Int)
(declare-fun lam5n2 () Int)
(declare-fun lam5n3 () Int)
(declare-fun lam5n4 () Int)
(declare-fun lam5n5 () Int)
(declare-fun lam5n6 () Int)
(declare-fun lam5n7 () Int)
(declare-fun lam5n8 () Int)
(declare-fun lam5n9 () Int)
(declare-fun lam5n10 () Int)
(declare-fun lam5n11 () Int)
(declare-fun lam5n12 () Int)
(declare-fun lam5n13 () Int)
(declare-fun lam5n14 () Int)
(declare-fun lam5n15 () Int)
(declare-fun lam5n16 () Int)
(declare-fun lam5n17 () Int)
(declare-fun lam5n18 () Int)
(declare-fun lam5n19 () Int)
(declare-fun lam5n20 () Int)
(declare-fun lam5n21 () Int)
(declare-fun lam5n22 () Int)
(declare-fun undef1 () Int)
(declare-fun undef26 () Int)
(declare-fun undef27 () Int)
(declare-fun undef276 () Int)
(declare-fun undef277 () Int)
(declare-fun undef279 () Int)
(declare-fun undef366 () Int)
(declare-fun undef2 () Int)
(declare-fun undef28 () Int)
(declare-fun undef38 () Int)
(declare-fun undef288 () Int)
(declare-fun undef367 () Int)
(declare-fun undef278 () Int)
(declare-fun undef39 () Int)
(declare-fun undef40 () Int)
(declare-fun undef51 () Int)
(declare-fun undef52 () Int)
(declare-fun lam6n0 () Int)
(declare-fun lam6n1 () Int)
(declare-fun lam6n2 () Int)
(declare-fun lam6n3 () Int)
(declare-fun lam6n4 () Int)
(declare-fun lam6n5 () Int)
(declare-fun lam6n6 () Int)
(declare-fun lam6n7 () Int)
(declare-fun lam6n8 () Int)
(declare-fun lam6n9 () Int)
(declare-fun lam6n10 () Int)
(declare-fun lam6n11 () Int)
(declare-fun lam6n12 () Int)
(declare-fun lam6n13 () Int)
(declare-fun lam6n14 () Int)
(declare-fun lam7n0 () Int)
(declare-fun lam7n1 () Int)
(declare-fun lam7n2 () Int)
(declare-fun lam7n3 () Int)
(declare-fun lam7n4 () Int)
(declare-fun lam7n5 () Int)
(declare-fun lam7n6 () Int)
(declare-fun lam7n7 () Int)
(declare-fun lam7n8 () Int)
(declare-fun lam7n9 () Int)
(declare-fun lam7n10 () Int)
(declare-fun lam7n11 () Int)
(declare-fun lam7n12 () Int)
(declare-fun lam7n13 () Int)
(declare-fun lam7n14 () Int)
(assert ( and ( <= ( - 1 ) Nl4arg11 ) ( <= Nl4arg11 1 ) ( <= ( - 1 ) Nl4arg21 ) ( <= Nl4arg21 1 ) ( <= ( - 1 ) Nl4arg31 ) ( <= Nl4arg31 1 ) ( <= ( - 1 ) Nl4arg12 ) ( <= Nl4arg12 1 ) ( <= ( - 1 ) Nl4arg22 ) ( <= Nl4arg22 1 ) ( <= ( - 1 ) Nl4arg32 ) ( <= Nl4arg32 1 ) ( <= ( - 1 ) Nl4arg13 ) ( <= Nl4arg13 1 ) ( <= ( - 1 ) Nl4arg23 ) ( <= Nl4arg23 1 ) ( <= ( - 1 ) Nl4arg33 ) ( <= Nl4arg33 1 ) ))
(assert ( or ( and ( <= ( + 1 ( * ( - 1 ) undef1 ) ) 0 ) ( <= ( + 1 ( * ( - 1 ) undef26 ) ) 0 ) ( <= ( + 1 ( * ( - 1 ) undef27 ) ) 0 ) ( <= ( + 1 ( * ( - 1 ) undef276 ) ( * ( - 1 ) undef277 ) undef279 ) 0 ) ( <= ( + 1 ( * ( - 1 ) undef277 ) ) 0 ) ( <= ( + 1 ( * ( - 1 ) undef366 ) ) 0 ) ( <= ( + ( - 1 ) ( * ( - 1 ) undef2 ) undef26 ) 0 ) ( <= ( + undef1 ( * ( - 1 ) undef366 ) ) 0 ) ( <= ( + ( * ( - 1 ) undef1 ) undef26 ) 0 ) ( <= ( * ( - 1 ) undef2 ) 0 ) ( <= ( + ( * ( - 1 ) undef2 ) undef27 ) 0 ) ( <= ( + ( * ( - 1 ) undef27 ) undef276 ) 0 ) ( <= ( + ( * ( - 1 ) undef28 ) undef38 ) 0 ) ( <= ( + ( * ( - 1 ) undef28 ) undef288 ) 0 ) ( <= ( * ( - 1 ) undef367 ) 0 ) ( <= ( + 2 ( * ( - 1 ) undef27 ) undef278 ) 0 ) ( <= ( + 2 ( * ( - 1 ) undef27 ) undef279 ) 0 ) ( <= ( + 2 ( * ( - 1 ) undef276 ) ) 0 ) ( <= ( + 2 ( * ( - 1 ) undef276 ) ( * ( - 1 ) undef277 ) undef278 ) 0 ) ( <= ( + 2 ( * ( - 1 ) undef276 ) undef278 ) 0 ) ( <= ( + 2 ( * ( - 1 ) undef276 ) undef279 ) 0 ) ( not ( <= ( + ( - 3 ) undef276 undef277 ) 0 ) ) ( <= ( + ( + ( + ( + Nl4CT1 ( * Nl4arg11 0 ) ) ( * Nl4arg21 0 ) ) ( * Nl4arg31 0 ) ) ( * ( + 0 ( * Nl4arg11 1 ) ) undef26 ) ( * ( + 0 ( * Nl4arg21 1 ) ) undef27 ) ( * ( + 0 ( * Nl4arg31 1 ) ) undef28 ) ) 0 ) ( <= ( + ( + ( + ( + Nl4CT2 ( * Nl4arg12 0 ) ) ( * Nl4arg22 0 ) ) ( * Nl4arg32 0 ) ) ( * ( + 0 ( * Nl4arg12 1 ) ) undef26 ) ( * ( + 0 ( * Nl4arg22 1 ) ) undef27 ) ( * ( + 0 ( * Nl4arg32 1 ) ) undef28 ) ) 0 ) ( <= ( + ( + ( + ( + Nl4CT3 ( * Nl4arg13 0 ) ) ( * Nl4arg23 0 ) ) ( * Nl4arg33 0 ) ) ( * ( + 0 ( * Nl4arg13 1 ) ) undef26 ) ( * ( + 0 ( * Nl4arg23 1 ) ) undef27 ) ( * ( + 0 ( * Nl4arg33 1 ) ) undef28 ) ) 0 ) ) ( and ( <= ( + 1 ( * ( - 1 ) undef1 ) ) 0 ) ( <= ( + 1 ( * ( - 1 ) undef39 ) ) 0 ) ( <= ( + 1 ( * ( - 1 ) undef40 ) ) 0 ) ( <= ( + 1 undef51 ( * ( - 1 ) undef52 ) ) 0 ) ( <= ( + 1 ( * ( - 1 ) undef276 ) ( * ( - 1 ) undef277 ) undef279 ) 0 ) ( <= ( + 1 ( * ( - 1 ) undef277 ) ) 0 ) ( <= ( + 1 ( * ( - 1 ) undef366 ) ) 0 ) ( <= ( + ( - 1 ) ( * ( - 1 ) undef2 ) undef39 ) 0 ) ( <= ( + ( - 1 ) ( * ( - 1 ) undef51 ) undef288 ) 0 ) ( <= ( + undef1 ( * ( - 1 ) undef366 ) ) 0 ) ( <= ( + ( * ( - 1 ) undef1 ) undef39 ) 0 ) ( <= ( * ( - 1 ) undef2 ) 0 ) ( <= ( + ( * ( - 1 ) undef2 ) undef40 ) 0 ) ( <= ( + ( * ( - 1 ) undef40 ) undef276 ) 0 ) ( <= ( * ( - 1 ) undef51 ) 0 ) ( <= ( * ( - 1 ) undef367 ) 0 ) ( <= ( + 2 ( * ( - 1 ) undef40 ) undef278 ) 0 ) ( <= ( + 2 ( * ( - 1 ) undef40 ) undef279 ) 0 ) ( <= ( + 2 ( * ( - 1 ) undef276 ) ) 0 ) ( <= ( + 2 ( * ( - 1 ) undef276 ) ( * ( - 1 ) undef277 ) undef278 ) 0 ) ( <= ( + 2 ( * ( - 1 ) undef276 ) undef278 ) 0 ) ( <= ( + 2 ( * ( - 1 ) undef276 ) undef279 ) 0 ) ( not ( <= ( + ( - 3 ) undef276 undef277 ) 0 ) ) ( <= ( + ( + ( + ( + Nl4CT1 ( * Nl4arg11 0 ) ) ( * Nl4arg21 0 ) ) ( * Nl4arg31 1 ) ) ( * ( + 0 ( * Nl4arg11 1 ) ) undef39 ) ( * ( + 0 ( * Nl4arg21 1 ) ) undef40 ) ( * ( + 0 ( * Nl4arg31 1 ) ) undef51 ) ) 0 ) ( <= ( + ( + ( + ( + Nl4CT2 ( * Nl4arg12 0 ) ) ( * Nl4arg22 0 ) ) ( * Nl4arg32 1 ) ) ( * ( + 0 ( * Nl4arg12 1 ) ) undef39 ) ( * ( + 0 ( * Nl4arg22 1 ) ) undef40 ) ( * ( + 0 ( * Nl4arg32 1 ) ) undef51 ) ) 0 ) ( <= ( + ( + ( + ( + Nl4CT3 ( * Nl4arg13 0 ) ) ( * Nl4arg23 0 ) ) ( * Nl4arg33 1 ) ) ( * ( + 0 ( * Nl4arg13 1 ) ) undef39 ) ( * ( + 0 ( * Nl4arg23 1 ) ) undef40 ) ( * ( + 0 ( * Nl4arg33 1 ) ) undef51 ) ) 0 ) ) ))
(assert ( or ( or ( and ( >= lam6n0 0 ) ( >= lam6n1 0 ) ( >= lam6n2 0 ) ( >= lam6n3 0 ) ( >= lam6n4 0 ) ( >= lam6n5 0 ) ( >= lam6n6 0 ) ( >= lam6n7 0 ) ( >= lam6n8 0 ) ( >= lam6n9 0 ) ( >= lam6n10 0 ) ( >= lam6n11 0 ) ( >= lam6n12 0 ) ( >= lam6n13 0 ) ( >= lam6n14 0 ) ( > ( + ( * 1 lam6n0 ) ( * 1 lam6n1 ) ( * 1 lam6n2 ) ( * 1 lam6n3 ) ( * 2 lam6n6 ) ( * 2 lam6n7 ) ( * 2 lam6n8 ) ( * 2 lam6n9 ) ( * 2 lam6n10 ) ( * 2 lam6n11 ) ( * Nl4CT1 lam6n12 ) ( * Nl4CT2 lam6n13 ) ( * Nl4CT3 lam6n14 ) ( - 1 ) ) 0 ) ( = ( + ( * ( - 1 ) lam6n0 ) ( * Nl4arg11 lam6n12 ) ( * Nl4arg12 lam6n13 ) ( * Nl4arg13 lam6n14 ) ) 0 ) ( = ( + ( * ( - 1 ) lam6n1 ) ( * ( - 1 ) lam6n4 ) ( * ( - 1 ) lam6n6 ) ( * ( - 1 ) lam6n7 ) ( * Nl4arg21 lam6n12 ) ( * Nl4arg22 lam6n13 ) ( * Nl4arg23 lam6n14 ) ) 0 ) ( = ( + ( * ( - 1 ) lam6n5 ) ( * Nl4arg31 lam6n12 ) ( * Nl4arg32 lam6n13 ) ( * Nl4arg33 lam6n14 ) ) 0 ) ( = ( + ( * ( - 1 ) lam6n2 ) ( * 1 lam6n4 ) ( * ( - 1 ) lam6n8 ) ( * ( - 1 ) lam6n9 ) ( * ( - 1 ) lam6n10 ) ( * ( - 1 ) lam6n11 ) ) 0 ) ( = ( + ( * ( - 1 ) lam6n2 ) ( * ( - 1 ) lam6n3 ) ( * ( - 1 ) lam6n9 ) ) 0 ) ( = ( + ( * 1 lam6n6 ) ( * 1 lam6n9 ) ( * 1 lam6n10 ) ) 0 ) ( = ( + ( * 1 lam6n2 ) ( * 1 lam6n7 ) ( * 1 lam6n11 ) ) 0 ) ( = ( * 1 lam6n5 ) 0 ) ) ( and ( >= lam7n0 0 ) ( >= lam7n1 0 ) ( >= lam7n2 0 ) ( >= lam7n3 0 ) ( >= lam7n4 0 ) ( >= lam7n5 0 ) ( >= lam7n6 0 ) ( >= lam7n7 0 ) ( >= lam7n8 0 ) ( >= lam7n9 0 ) ( >= lam7n10 0 ) ( >= lam7n11 0 ) ( >= lam7n12 0 ) ( >= lam7n13 0 ) ( >= lam7n14 0 ) ( > ( + ( * 1 lam7n0 ) ( * 1 lam7n1 ) ( * 1 lam7n2 ) ( * 1 lam7n3 ) ( * 2 lam7n6 ) ( * 2 lam7n7 ) ( * 2 lam7n8 ) ( * 2 lam7n9 ) ( * 2 lam7n10 ) ( * 2 lam7n11 ) ( * Nl4CT1 lam7n12 ) ( * Nl4CT2 lam7n13 ) ( * Nl4CT3 lam7n14 ) 4 ) 0 ) ( = ( + ( * ( - 1 ) lam7n0 ) ( * Nl4arg11 lam7n12 ) ( * Nl4arg12 lam7n13 ) ( * Nl4arg13 lam7n14 ) ) 0 ) ( = ( + ( * ( - 1 ) lam7n1 ) ( * ( - 1 ) lam7n4 ) ( * ( - 1 ) lam7n6 ) ( * ( - 1 ) lam7n7 ) ( * Nl4arg21 lam7n12 ) ( * Nl4arg22 lam7n13 ) ( * Nl4arg23 lam7n14 ) ) 0 ) ( = ( + ( * ( - 1 ) lam7n5 ) ( * Nl4arg31 lam7n12 ) ( * Nl4arg32 lam7n13 ) ( * Nl4arg33 lam7n14 ) ) 0 ) ( = ( + ( * ( - 1 ) lam7n2 ) ( * 1 lam7n4 ) ( * ( - 1 ) lam7n8 ) ( * ( - 1 ) lam7n9 ) ( * ( - 1 ) lam7n10 ) ( * ( - 1 ) lam7n11 ) ( - 1 ) ) 0 ) ( = ( + ( * ( - 1 ) lam7n2 ) ( * ( - 1 ) lam7n3 ) ( * ( - 1 ) lam7n9 ) ( - 1 ) ) 0 ) ( = ( + ( * 1 lam7n6 ) ( * 1 lam7n9 ) ( * 1 lam7n10 ) ) 0 ) ( = ( + ( * 1 lam7n2 ) ( * 1 lam7n7 ) ( * 1 lam7n11 ) ) 0 ) ( = ( * 1 lam7n5 ) 0 ) ) ) ( and ( or ( and ( <= ( + 1 ( * ( - 1 ) undef1 ) ) 0 ) ( <= ( + 1 ( * ( - 1 ) undef26 ) ) 0 ) ( <= ( + 1 ( * ( - 1 ) undef27 ) ) 0 ) ( <= ( + 1 ( * ( - 1 ) undef276 ) ( * ( - 1 ) undef277 ) undef279 ) 0 ) ( <= ( + 1 ( * ( - 1 ) undef277 ) ) 0 ) ( <= ( + 1 ( * ( - 1 ) undef366 ) ) 0 ) ( <= ( + ( - 1 ) ( * ( - 1 ) undef2 ) undef26 ) 0 ) ( <= ( + undef1 ( * ( - 1 ) undef366 ) ) 0 ) ( <= ( + ( * ( - 1 ) undef1 ) undef26 ) 0 ) ( <= ( * ( - 1 ) undef2 ) 0 ) ( <= ( + ( * ( - 1 ) undef2 ) undef27 ) 0 ) ( <= ( + ( * ( - 1 ) undef27 ) undef276 ) 0 ) ( <= ( + ( * ( - 1 ) undef28 ) undef38 ) 0 ) ( <= ( + ( * ( - 1 ) undef28 ) undef288 ) 0 ) ( <= ( * ( - 1 ) undef367 ) 0 ) ( <= ( + 2 ( * ( - 1 ) undef27 ) undef278 ) 0 ) ( <= ( + 2 ( * ( - 1 ) undef27 ) undef279 ) 0 ) ( <= ( + 2 ( * ( - 1 ) undef276 ) ) 0 ) ( <= ( + 2 ( * ( - 1 ) undef276 ) ( * ( - 1 ) undef277 ) undef278 ) 0 ) ( <= ( + 2 ( * ( - 1 ) undef276 ) undef278 ) 0 ) ( <= ( + 2 ( * ( - 1 ) undef276 ) undef279 ) 0 ) ( not ( <= ( + ( - 3 ) undef276 undef277 ) 0 ) ) ( <= ( + ( + ( + ( + Nl4CT1 ( * Nl4arg11 0 ) ) ( * Nl4arg21 0 ) ) ( * Nl4arg31 0 ) ) ( * ( + 0 ( * Nl4arg11 1 ) ) undef26 ) ( * ( + 0 ( * Nl4arg21 1 ) ) undef27 ) ( * ( + 0 ( * Nl4arg31 1 ) ) undef28 ) ) 0 ) ( <= ( + ( + ( + ( + Nl4CT2 ( * Nl4arg12 0 ) ) ( * Nl4arg22 0 ) ) ( * Nl4arg32 0 ) ) ( * ( + 0 ( * Nl4arg12 1 ) ) undef26 ) ( * ( + 0 ( * Nl4arg22 1 ) ) undef27 ) ( * ( + 0 ( * Nl4arg32 1 ) ) undef28 ) ) 0 ) ( <= ( + ( + ( + ( + Nl4CT3 ( * Nl4arg13 0 ) ) ( * Nl4arg23 0 ) ) ( * Nl4arg33 0 ) ) ( * ( + 0 ( * Nl4arg13 1 ) ) undef26 ) ( * ( + 0 ( * Nl4arg23 1 ) ) undef27 ) ( * ( + 0 ( * Nl4arg33 1 ) ) undef28 ) ) 0 ) ) ( and ( <= ( + 1 ( * ( - 1 ) undef1 ) ) 0 ) ( <= ( + 1 ( * ( - 1 ) undef39 ) ) 0 ) ( <= ( + 1 ( * ( - 1 ) undef40 ) ) 0 ) ( <= ( + 1 undef51 ( * ( - 1 ) undef52 ) ) 0 ) ( <= ( + 1 ( * ( - 1 ) undef276 ) ( * ( - 1 ) undef277 ) undef279 ) 0 ) ( <= ( + 1 ( * ( - 1 ) undef277 ) ) 0 ) ( <= ( + 1 ( * ( - 1 ) undef366 ) ) 0 ) ( <= ( + ( - 1 ) ( * ( - 1 ) undef2 ) undef39 ) 0 ) ( <= ( + ( - 1 ) ( * ( - 1 ) undef51 ) undef288 ) 0 ) ( <= ( + undef1 ( * ( - 1 ) undef366 ) ) 0 ) ( <= ( + ( * ( - 1 ) undef1 ) undef39 ) 0 ) ( <= ( * ( - 1 ) undef2 ) 0 ) ( <= ( + ( * ( - 1 ) undef2 ) undef40 ) 0 ) ( <= ( + ( * ( - 1 ) undef40 ) undef276 ) 0 ) ( <= ( * ( - 1 ) undef51 ) 0 ) ( <= ( * ( - 1 ) undef367 ) 0 ) ( <= ( + 2 ( * ( - 1 ) undef40 ) undef278 ) 0 ) ( <= ( + 2 ( * ( - 1 ) undef40 ) undef279 ) 0 ) ( <= ( + 2 ( * ( - 1 ) undef276 ) ) 0 ) ( <= ( + 2 ( * ( - 1 ) undef276 ) ( * ( - 1 ) undef277 ) undef278 ) 0 ) ( <= ( + 2 ( * ( - 1 ) undef276 ) undef278 ) 0 ) ( <= ( + 2 ( * ( - 1 ) undef276 ) undef279 ) 0 ) ( not ( <= ( + ( - 3 ) undef276 undef277 ) 0 ) ) ( <= ( + ( + ( + ( + Nl4CT1 ( * Nl4arg11 0 ) ) ( * Nl4arg21 0 ) ) ( * Nl4arg31 1 ) ) ( * ( + 0 ( * Nl4arg11 1 ) ) undef39 ) ( * ( + 0 ( * Nl4arg21 1 ) ) undef40 ) ( * ( + 0 ( * Nl4arg31 1 ) ) undef51 ) ) 0 ) ( <= ( + ( + ( + ( + Nl4CT2 ( * Nl4arg12 0 ) ) ( * Nl4arg22 0 ) ) ( * Nl4arg32 1 ) ) ( * ( + 0 ( * Nl4arg12 1 ) ) undef39 ) ( * ( + 0 ( * Nl4arg22 1 ) ) undef40 ) ( * ( + 0 ( * Nl4arg32 1 ) ) undef51 ) ) 0 ) ( <= ( + ( + ( + ( + Nl4CT3 ( * Nl4arg13 0 ) ) ( * Nl4arg23 0 ) ) ( * Nl4arg33 1 ) ) ( * ( + 0 ( * Nl4arg13 1 ) ) undef39 ) ( * ( + 0 ( * Nl4arg23 1 ) ) undef40 ) ( * ( + 0 ( * Nl4arg33 1 ) ) undef51 ) ) 0 ) ) ) false ) ))
(check-sat)
(exit)
